p tw 20 53
0 1
0 4
0 10
0 3
0 9
0 11
1 8
1 9
1 16
1 14
1 13
1 17
1 10
2 3
2 18
2 9
2 13
3 5
3 18
3 13
3 9
3 7
3 19
3 16
4 9
5 14
5 6
5 10
5 19
6 7
6 17
6 13
7 14
7 12
7 11
8 17
8 14
8 9
9 10
9 15
9 19
10 13
10 17
10 11
11 12
11 16
13 16
14 15
14 18
15 17
16 17
16 19
17 19
